T = 7;
C = 5;
start_times = array1d(1..7, [1, 14, 60, 97, 134, 138, 143]);
end_times = array1d(1..7, [13, 217, 212, 118, 365, 325, 272]);
cost = array2d(1..7, 1..7, [1, 2, 1, 0, 0, 4, 0, 10, 0, 169, 131, 0, 286, 0, 0, 371, 457, 409, 0, 0, 0, 0,
 0, 11, 0, 0, 50, 0, 20, 0, 65, 0, 88, 0, 0, 32, 0, 100, 0, 40, 0, 0, 0, 55, 0, 0, 55, 0,
 0]);